Data path: /scratch/opt/lxu/CFLG/benchmarks/Kgroup_B
Instance: K400.2.red
Result path: /scratch/opt/lxu/CFLG/results/Kgroup_B
Solver: Gurobi
Time limit: 3600
Formulation: EVFP
Cover: Large
julia --project=. src/main.jl /scratch/opt/lxu/CFLG/benchmarks/Kgroup_B K400.2.red /scratch/opt/lxu/CFLG/results/Kgroup_B Gurobi 3600 EVFP Large
The latest version of Julia in the `release` channel is 1.11.5+0.x64.linux.gnu. You currently have `1.11.4+0.x64.linux.gnu` installed. Run:

  juliaup update

in your terminal shell to install Julia 1.11.5+0.x64.linux.gnu and update the `release` channel to that version.
/scratch/opt/lxu/CFLG/benchmarks/Kgroup_B Gurobi 3600.0 /scratch/opt/lxu/CFLG/results/Kgroup_B K400.2.red EVFP Large
/scratch/opt/lxu/CFLG/benchmarks/Kgroup_B/K400.2.red

 read graph
data loaded


after absorb:226 228

max_piece:3
problem_graph/original graph: node: 311/228 edge: 1031/948 dlt: 0.46887501846466717 break_avg_len: 0.21556426649102994 break_max_len: 0.4680467728830325elapsed CPU time: 0.120752 seconds
Set parameter TokenServer to value "solice01.zib.de"
Set parameter Threads to value 1
Set parameter OutputFlag to value 1
Set parameter MIPGap to value 0.0001
Set parameter MIPGapAbs to value 1
Set parameter TimeLimit to value 3599.879248
vertex var

 model loaded

Gurobi Optimizer version 12.0.1 build v12.0.1rc0 (linux64 - "Debian GNU/Linux 12 (bookworm)")

CPU model: Intel(R) Xeon(R) Gold 5222 CPU @ 3.80GHz, instruction set [SSE2|AVX|AVX2|AVX512]
Thread count: 8 physical cores, 16 logical processors, using up to 1 threads

Non-default parameters:
TimeLimit  3599.879248
MIPGapAbs  1
Threads  1

Optimize a model with 95162 rows, 44119 columns and 276623 nonzeros
Model fingerprint: 0x7aefcb8c
Variable types: 1342 continuous, 42777 integer (42777 binary)
Coefficient statistics:
  Matrix range     [1e-06, 1e+00]
  Objective range  [1e+00, 1e+00]
  Bounds range     [5e-03, 5e-01]
  RHS range        [5e-03, 1e+01]
Found heuristic solution: objective 437.0000000
Presolve removed 19539 rows and 1136 columns
Presolve time: 1.54s
Presolved: 75623 rows, 42983 columns, 249619 nonzeros
Variable types: 1342 continuous, 41641 integer (41641 binary)
Root relaxation presolved: 75623 rows, 42983 columns, 249619 nonzeros


Root simplex log...

Iteration    Objective       Primal Inf.    Dual Inf.      Time
   25998    1.6758535e+01   1.295047e+03   0.000000e+00      5s
   32097    1.7065596e+01   0.000000e+00   0.000000e+00      8s

Root relaxation: objective 1.706560e+01, 32097 iterations, 6.18 seconds (8.14 work units)
Total elapsed time = 14.75s (DegenMoves)
Total elapsed time = 15.28s (DegenMoves)

    Nodes    |    Current Node    |     Objective Bounds      |     Work
 Expl Unexpl |  Obj  Depth IntInf | Incumbent    BestBd   Gap | It/Node Time

     0     0   17.06560    0 2767  437.00000   17.06560  96.1%     -   18s
H    0     0                     151.0000000   17.06560  88.7%     -   18s
H    0     0                      72.0000000   17.06560  76.3%     -   18s
H    0     0                      71.0000000   17.06560  76.0%     -   18s
H    0     0                      70.0000000   17.06560  75.6%     -   19s
H    0     0                      69.0000000   17.06560  75.3%     -   20s
H    0     0                      66.0000000   17.06560  74.1%     -   21s
H    0     0                      65.0000000   17.06560  73.7%     -   22s
H    0     0                      64.0000000   17.06560  73.3%     -   22s
H    0     0                      54.0000000   17.06560  68.4%     -   23s
H    0     0                      50.0000000   17.06560  65.9%     -   25s
H    0     0                      49.0000000   17.06560  65.2%     -   26s
H    0     0                      48.0000000   17.06560  64.4%     -   28s
     0     0   17.54699    0 2653   48.00000   17.54699  63.4%     -   40s
H    0     0                      47.0000000   17.54699  62.7%     -   42s
H    0     0                      46.0000000   17.54699  61.9%     -   44s
H    0     0                      45.0000000   17.54699  61.0%     -   52s
     0     0   17.62498    0 2518   45.00000   17.62498  60.8%     -   56s
     0     0   17.88189    0 2802   45.00000   17.88189  60.3%     -   62s
     0     0   18.12673    0 2419   45.00000   18.12673  59.7%     -   66s
     0     0   18.23872    0 2536   45.00000   18.23872  59.5%     -   68s
     0     0   18.29230    0 2761   45.00000   18.29230  59.4%     -   70s
     0     0   18.29934    0 2761   45.00000   18.29934  59.3%     -   70s
     0     0   18.37750    0 2966   45.00000   18.37750  59.2%     -   72s
     0     0   18.39222    0 3074   45.00000   18.39222  59.1%     -   73s
     0     0   18.41920    0 3097   45.00000   18.41920  59.1%     -   75s
     0     0   18.42235    0 3128   45.00000   18.42235  59.1%     -   75s
     0     0   18.44837    0 3095   45.00000   18.44837  59.0%     -   76s
     0     0   18.46085    0 3167   45.00000   18.46085  59.0%     -   76s
     0     0   18.46541    0 3117   45.00000   18.46541  59.0%     -   77s
     0     0   18.46542    0 3096   45.00000   18.46542  59.0%     -   77s
     0     0   19.42377    0 3004   45.00000   19.42377  56.8%     -   88s
     0     0   19.50842    0 3015   45.00000   19.50842  56.6%     -   91s
     0     0   19.58183    0 3130   45.00000   19.58183  56.5%     -   94s
     0     0   19.64880    0 3187   45.00000   19.64880  56.3%     -   98s
     0     0   19.66463    0 3082   45.00000   19.66463  56.3%     -   99s
     0     0   19.67410    0 3152   45.00000   19.67410  56.3%     -  101s
     0     0   19.67501    0 3182   45.00000   19.67501  56.3%     -  101s
     0     0   19.67545    0 3076   45.00000   19.67545  56.3%     -  101s
     0     0   20.22126    0 2864   45.00000   20.22126  55.1%     -  109s
     0     0   20.28401    0 2814   45.00000   20.28401  54.9%     -  112s
     0     0   20.31101    0 2909   45.00000   20.31101  54.9%     -  114s
     0     0   20.32981    0 3123   45.00000   20.32981  54.8%     -  116s
     0     0   20.34765    0 3209   45.00000   20.34765  54.8%     -  118s
     0     0   20.35623    0 3352   45.00000   20.35623  54.8%     -  119s
     0     0   20.35966    0 3285   45.00000   20.35966  54.8%     -  119s
     0     0   20.36064    0 3395   45.00000   20.36064  54.8%     -  120s
     0     0   20.36105    0 3471   45.00000   20.36105  54.8%     -  120s
     0     0   20.54700    0 3327   45.00000   20.54700  54.3%     -  127s
H    0     0                      44.0000000   20.54704  53.3%     -  140s
H    0     0                      43.0000000   20.54704  52.2%     -  142s
     0     0   20.56248    0 3229   43.00000   20.56248  52.2%     -  153s
     0     0   20.57851    0 3235   43.00000   20.57851  52.1%     -  155s
     0     0   20.58036    0 3203   43.00000   20.58036  52.1%     -  156s
     0     0   20.58656    0 3227   43.00000   20.58656  52.1%     -  157s
     0     0   20.59038    0 3354   43.00000   20.59038  52.1%     -  158s
     0     0   20.59282    0 3324   43.00000   20.59282  52.1%     -  158s
     0     0   20.59292    0 3552   43.00000   20.59292  52.1%     -  159s
     0     0   20.69424    0 3461   43.00000   20.69424  51.9%     -  164s
     0     0   20.80219    0 3048   43.00000   20.80219  51.6%     -  170s
     0     0   20.83791    0 3435   43.00000   20.83791  51.5%     -  174s
     0     0   20.85311    0 3905   43.00000   20.85311  51.5%     -  176s
     0     0   20.86418    0 3818   43.00000   20.86418  51.5%     -  178s
     0     0   20.87079    0 3886   43.00000   20.87079  51.5%     -  180s
     0     0   20.87477    0 3808   43.00000   20.87477  51.5%     -  182s
     0     0   20.87683    0 3861   43.00000   20.87683  51.4%     -  183s
     0     0   20.87702    0 3805   43.00000   20.87702  51.4%     -  183s
     0     0   20.95475    0 3639   43.00000   20.95475  51.3%     -  189s
     0     0   20.98354    0 3684   43.00000   20.98354  51.2%     -  194s
     0     0   20.99852    0 3856   43.00000   20.99852  51.2%     -  198s
     0     0   21.00822    0 4115   43.00000   21.00822  51.1%     -  201s
     0     0   21.01280    0 4176   43.00000   21.01280  51.1%     -  202s
     0     0   21.01499    0 4133   43.00000   21.01499  51.1%     -  204s
     0     0   21.01515    0 4236   43.00000   21.01515  51.1%     -  204s
     0     0   21.12146    0 4222   43.00000   21.12146  50.9%     -  216s
     0     0   21.14804    0 4648   43.00000   21.14804  50.8%     -  220s
     0     0   21.16574    0 4226   43.00000   21.16574  50.8%     -  224s
     0     0   21.17122    0 4326   43.00000   21.17122  50.8%     -  226s
     0     0   21.17145    0 4503   43.00000   21.17145  50.8%     -  226s
     0     0   21.29661    0 4101   43.00000   21.29661  50.5%     -  235s
     0     0   21.33420    0 4036   43.00000   21.33420  50.4%     -  239s
     0     0   21.35831    0 3905   43.00000   21.35831  50.3%     -  244s
     0     0   21.36185    0 3905   43.00000   21.36185  50.3%     -  245s
     0     0   21.36978    0 4067   43.00000   21.36978  50.3%     -  246s
     0     0   21.37650    0 4235   43.00000   21.37650  50.3%     -  248s
     0     0   21.37753    0 4157   43.00000   21.37753  50.3%     -  249s
     0     0   21.43805    0 3946   43.00000   21.43805  50.1%     -  254s
     0     0   21.45939    0 3745   43.00000   21.45939  50.1%     -  269s
     0     0   21.47531    0 4021   43.00000   21.47531  50.1%     -  271s
     0     0   21.49471    0 3937   43.00000   21.49471  50.0%     -  273s
     0     0   21.49615    0 3980   43.00000   21.49615  50.0%     -  273s
     0     0   21.49916    0 4155   43.00000   21.49916  50.0%     -  274s
     0     0   21.49937    0 4246   43.00000   21.49937  50.0%     -  275s
     0     0   21.54502    0 3962   43.00000   21.54502  49.9%     -  280s
     0     0   21.56675    0 3961   43.00000   21.56675  49.8%     -  283s
     0     0   21.57191    0 4225   43.00000   21.57191  49.8%     -  285s
     0     0   21.58015    0 4283   43.00000   21.58015  49.8%     -  287s
     0     0   21.58209    0 4264   43.00000   21.58209  49.8%     -  288s
     0     0   21.58598    0 4229   43.00000   21.58598  49.8%     -  290s
     0     0   21.58768    0 4449   43.00000   21.58768  49.8%     -  291s
     0     0   21.58846    0 4390   43.00000   21.58846  49.8%     -  291s
     0     0   21.61841    0 4154   43.00000   21.61841  49.7%     -  296s
     0     0   21.62728    0 4253   43.00000   21.62728  49.7%     -  297s
     0     0   21.64186    0 4381   43.00000   21.64186  49.7%     -  299s
     0     0   21.64481    0 4319   43.00000   21.64481  49.7%     -  300s
     0     0   21.64745    0 4469   43.00000   21.64745  49.7%     -  301s
     0     0   21.64824    0 4470   43.00000   21.64824  49.7%     -  302s
     0     0   21.68655    0 4507   43.00000   21.68655  49.6%     -  308s
     0     0   21.71370    0 4628   43.00000   21.71370  49.5%     -  316s
     0     0   21.74901    0 4483   43.00000   21.74901  49.4%     -  322s
     0     0   21.75554    0 4565   43.00000   21.75554  49.4%     -  324s
     0     0   21.75765    0 4484   43.00000   21.75765  49.4%     -  325s
     0     0   21.76021    0 4581   43.00000   21.76021  49.4%     -  326s
     0     0   21.76137    0 4540   43.00000   21.76137  49.4%     -  327s
     0     0   21.83075    0 4119   43.00000   21.83075  49.2%     -  336s
     0     0   21.83981    0 4199   43.00000   21.83981  49.2%     -  338s
     0     0   21.84441    0 4328   43.00000   21.84441  49.2%     -  339s
     0     0   21.85239    0 4331   43.00000   21.85239  49.2%     -  341s
     0     0   21.85967    0 4434   43.00000   21.85967  49.2%     -  345s
     0     0   21.86314    0 4781   43.00000   21.86314  49.2%     -  346s
     0     0   21.86569    0 4739   43.00000   21.86569  49.1%     -  347s
     0     0   21.86639    0 4589   43.00000   21.86639  49.1%     -  347s
     0     0   21.90307    0 4708   43.00000   21.90307  49.1%     -  353s
     0     0   21.93122    0 4421   43.00000   21.93122  49.0%     -  361s
     0     0   21.93391    0 4304   43.00000   21.93391  49.0%     -  361s
     0     0   21.93898    0 4744   43.00000   21.93898  49.0%     -  363s
     0     0   21.94041    0 4755   43.00000   21.94041  49.0%     -  364s
     0     0   21.96659    0 4897   43.00000   21.96659  48.9%     -  368s
H    0     0                      42.0000000   21.96670  47.7%     -  376s
H    0     0                      41.0000000   21.96670  46.4%     -  378s
H    0     0                      40.0000000   21.96670  45.1%     -  379s
     0     0   21.97604    0 4689   40.00000   21.97604  45.1%     -  384s
     0     0   21.97850    0 4925   40.00000   21.97850  45.1%     -  386s
     0     0   21.97981    0 4930   40.00000   21.97981  45.1%     -  387s
     0     0   22.00988    0 4747   40.00000   22.00988  45.0%     -  393s
     0     0   22.02081    0 4950   40.00000   22.02081  44.9%     -  399s
     0     0   22.03255    0 4994   40.00000   22.03255  44.9%     -  401s
     0     0   22.03398    0 5029   40.00000   22.03398  44.9%     -  402s
     0     0   22.03445    0 5269   40.00000   22.03445  44.9%     -  403s
     0     0   22.07129    0 5001   40.00000   22.07129  44.8%     -  410s
     0     0   22.08695    0 5598   40.00000   22.08695  44.8%     -  416s
     0     0   22.09319    0 5241   40.00000   22.09319  44.8%     -  419s
     0     0   22.09635    0 5257   40.00000   22.09635  44.8%     -  421s
     0     0   22.09671    0 5167   40.00000   22.09671  44.8%     -  422s
     0     0   22.13673    0 4923   40.00000   22.13673  44.7%     -  430s
     0     0   22.16356    0 5142   40.00000   22.16356  44.6%     -  445s
     0     0   22.18490    0 5355   40.00000   22.18490  44.5%     -  450s
     0     0   22.18831    0 5195   40.00000   22.18831  44.5%     -  451s
     0     0   22.19024    0 5455   40.00000   22.19024  44.5%     -  453s
     0     0   22.19111    0 5578   40.00000   22.19111  44.5%     -  453s
     0     0   22.26094    0 4457   40.00000   22.26094  44.3%     -  462s
     0     0   22.27784    0 4388   40.00000   22.27784  44.3%     -  466s
     0     0   22.28571    0 4502   40.00000   22.28571  44.3%     -  468s
     0     0   22.29054    0 4358   40.00000   22.29054  44.3%     -  469s
     0     0   22.29302    0 4640   40.00000   22.29302  44.3%     -  470s
     0     0   22.29374    0 4671   40.00000   22.29374  44.3%     -  472s
     0     0   22.32260    0 4321   40.00000   22.32260  44.2%     -  476s
     0     0   22.32825    0 4319   40.00000   22.32825  44.2%     -  480s
     0     0   22.33661    0 4682   40.00000   22.33661  44.2%     -  483s
     0     0   22.34366    0 4842   40.00000   22.34366  44.1%     -  486s
     0     0   22.34732    0 5010   40.00000   22.34732  44.1%     -  489s
     0     0   22.34831    0 5023   40.00000   22.34831  44.1%     -  491s
     0     0   22.36210    0 5040   40.00000   22.36210  44.1%     -  495s
     0     0   22.36347    0 5152   40.00000   22.36347  44.1%     -  497s
     0     0   22.38630    0 4826   40.00000   22.38630  44.0%     -  503s
     0     0   22.39387    0 5185   40.00000   22.39387  44.0%     -  506s
     0     0   22.39896    0 5260   40.00000   22.39896  44.0%     -  508s
     0     0   22.40296    0 5582   40.00000   22.40296  44.0%     -  509s
     0     0   22.40968    0 5263   40.00000   22.40968  44.0%     -  512s
     0     0   22.41320    0 5322   40.00000   22.41320  44.0%     -  513s
     0     0   22.41484    0 5550   40.00000   22.41484  44.0%     -  514s
     0     0   22.41580    0 5686   40.00000   22.41580  44.0%     -  515s
     0     0   22.43311    0 5127   40.00000   22.43311  43.9%     -  519s
     0     0   22.43823    0 5284   40.00000   22.43823  43.9%     -  521s
     0     0   22.44486    0 5251   40.00000   22.44486  43.9%     -  523s
     0     0   22.44648    0 5324   40.00000   22.44648  43.9%     -  525s
     0     0   22.47765    0 5311   40.00000   22.47765  43.8%     -  529s
     0     0   22.48492    0 5477   40.00000   22.48492  43.8%     -  532s
     0     0   22.48851    0 5098   40.00000   22.48851  43.8%     -  535s
     0     0   22.49770    0 4973   40.00000   22.49770  43.8%     -  537s
     0     0   22.50092    0 5116   40.00000   22.50092  43.7%     -  538s
     0     0   22.50165    0 5140   40.00000   22.50165  43.7%     -  539s
     0     0   22.52101    0 4984   40.00000   22.52101  43.7%     -  544s
     0     0   22.52911    0 5135   40.00000   22.52911  43.7%     -  547s
     0     0   22.53408    0 5098   40.00000   22.53408  43.7%     -  550s
     0     0   22.53626    0 4854   40.00000   22.53626  43.7%     -  552s
     0     0   22.53839    0 5037   40.00000   22.53839  43.7%     -  553s
     0     0   22.53869    0 4946   40.00000   22.53869  43.7%     -  554s
     0     0   22.54949    0 4889   40.00000   22.54949  43.6%     -  557s
     0     0   22.55700    0 5037   40.00000   22.55700  43.6%     -  560s
     0     0   22.56925    0 4841   40.00000   22.56925  43.6%     -  562s
     0     0   22.57206    0 4975   40.00000   22.57206  43.6%     -  564s
     0     0   22.57250    0 4935   40.00000   22.57250  43.6%     -  564s
     0     0   22.58583    0 5113   40.00000   22.58583  43.5%     -  568s
     0     0   22.59568    0 4948   40.00000   22.59568  43.5%     -  570s
     0     0   22.60051    0 4696   40.00000   22.60051  43.5%     -  572s
     0     0   22.60234    0 4724   40.00000   22.60234  43.5%     -  573s
     0     0   22.61468    0 5159   40.00000   22.61468  43.5%     -  577s
     0     0   22.62216    0 5279   40.00000   22.62216  43.4%     -  579s
     0     0   22.63170    0 5180   40.00000   22.63170  43.4%     -  581s
     0     0   22.63821    0 5188   40.00000   22.63821  43.4%     -  583s
     0     0   22.63985    0 5448   40.00000   22.63985  43.4%     -  584s
     0     0   22.65457    0 5422   40.00000   22.65457  43.4%     -  588s
     0     0   22.66178    0 5774   40.00000   22.66178  43.3%     -  591s
     0     0   22.66533    0 5868   40.00000   22.66533  43.3%     -  594s
     0     0   22.66595    0 6019   40.00000   22.66595  43.3%     -  595s
     0     0   22.67503    0 5426   40.00000   22.67503  43.3%     -  599s
     0     0   22.67908    0 5387   40.00000   22.67908  43.3%     -  602s
     0     0   22.68280    0 5780   40.00000   22.68280  43.3%     -  604s
     0     0   22.68524    0 5554   40.00000   22.68524  43.3%     -  606s
     0     0   22.68877    0 5633   40.00000   22.68877  43.3%     -  608s
     0     0   22.69010    0 5846   40.00000   22.69010  43.3%     -  609s
     0     0   22.70094    0 5344   40.00000   22.70094  43.2%     -  614s
     0     0   22.70247    0 5495   40.00000   22.70247  43.2%     -  619s
     0     0   22.70903    0 5396   40.00000   22.70903  43.2%     -  622s
     0     0   22.70909    0 4782   40.00000   22.70909  43.2%     -  633s
     0     2   22.70944    0 4704   40.00000   22.70944  43.2%     -  696s
     2     4   22.88269    1 4065   40.00000   22.71441  43.2% 18186  708s
     3     5   22.71909    2 4604   40.00000   22.71444  43.2% 13147  711s
     4     6   23.07226    2 4359   40.00000   22.71962  43.2% 12402  722s
     5     7   22.85634    3 4425   40.00000   22.71962  43.2% 10640  725s
     7     9   22.85926    4 4380   40.00000   22.85656  42.9%  8508  731s
    10    12   22.88833    7 4444   40.00000   22.85656  42.9%  6533  736s
    11    13   22.95121    8 4628   40.00000   22.85656  42.9%  8717  790s
    14    16   22.95601   10 4824   40.00000   22.85656  42.9%  7463  796s
    16    18   23.03562   12 4805   40.00000   22.85656  42.9%  6843  801s
    17    19   23.40675   12 4461   40.00000   22.85656  42.9%  6841  806s
    19    21   23.06962   14 4672   40.00000   22.85656  42.9%  6361  810s
    21    23   23.08627   16 4955   40.00000   22.85656  42.9%  6797  847s
    23    25   23.17400   18 4684   40.00000   22.85656  42.9%  6425  852s
    24    26   23.26530   19 4478   40.00000   22.85656  42.9%  6328  856s
    26    28   23.35838   21 4619   40.00000   22.85656  42.9%  6019  862s
    27    29   23.50703   21 4525   40.00000   22.85656  42.9%  5920  865s
    29    31   23.43419   22 4252   40.00000   22.85656  42.9%  5790  872s
    32    34   23.46889   25 5006   40.00000   22.85656  42.9%  5369  875s
    35    37   23.60108   28 4594   40.00000   22.85656  42.9%  5077  880s
    37    39   23.61881   29 4705   40.00000   22.85656  42.9%  4971  885s
    38    40   23.86237   29 4399   40.00000   22.85656  42.9%  5022  891s
    41    43   23.64457   32 4444   40.00000   22.85656  42.9%  4775  895s
    44    46   23.71256   35 4358   40.00000   22.85656  42.9%  4561  900s
    48    50   23.81292   37 4224   40.00000   22.85656  42.9%  4339  906s
    50    52   24.18225   38 3902   40.00000   22.85656  42.9%  4404  914s
    51    53   23.90879   39 4360   40.00000   22.85656  42.9%  4387  917s
    52    54   24.17513   39 4011   40.00000   22.85656  42.9%  4435  949s
    53    55   23.91624   40 4326   40.00000   22.85656  42.9%  4383  954s
    54    56   23.91782   41 4346   40.00000   22.85656  42.9%  4311  955s
    58    60   24.20303   44 3676   40.00000   22.85656  42.9%  4168  962s
    62    64   23.96363   48 4002   40.00000   22.85656  42.9%  3958  965s
    75    77   23.98032   61 3825   40.00000   22.85656  42.9%  3336  970s
    78    80   24.34626   63 3707   40.00000   22.85656  42.9%  3284 1001s
    84    86   24.10421   69 4122   40.00000   22.85656  42.9%  3114 1006s
    86    88   24.25823   70 4075   40.00000   22.85656  42.9%  3128 1013s
    87    89   24.21900   71 3704   40.00000   22.85656  42.9%  3120 1015s
    89    91   24.22535   72 3682   40.00000   22.85656  42.9%  3107 1020s
    95    97   24.32344   77 3520   40.00000   22.85656  42.9%  2999 1026s
    99   101   24.77909   80 3117   40.00000   22.85656  42.9%  2941 1032s
   101   103   24.37828   82 3667   40.00000   22.85656  42.9%  2925 1035s
   104   106   24.50320   85 3947   40.00000   22.85656  42.9%  2888 1040s
   108   110   24.52653   88 3758   40.00000   22.85656  42.9%  2850 1046s
   113   115   24.56516   93 3771   40.00000   22.85656  42.9%  2766 1050s
   116   118   24.70928   95 3095   40.00000   22.85656  42.9%  2746 1057s
   119   121   24.62392   98 3519   40.00000   22.85656  42.9%  2708 1060s
   125   127   24.77426  104 3255   40.00000   22.85656  42.9%  2626 1065s
   126   128   25.20351  104 2493   40.00000   22.85656  42.9%  2645 1070s
H  129   129                      39.0000000   22.85656  41.4%  2585 1079s
   129   131   24.87725  107 2866   39.00000   22.85656  41.4%  2614 1084s
   130   132   24.80897  107 3236   39.00000   22.85656  41.4%  2617 1085s
   134   136   24.89720  111 3016   39.00000   22.85656  41.4%  2585 1091s
   141   143   24.95149  118 3315   39.00000   22.85656  41.4%  2485 1095s
   148   150   25.42698  124 2624   39.00000   22.85656  41.4%  2420 1101s
   152   154   25.24178  127 2840   39.00000   22.85656  41.4%  2392 1106s
   158   160   25.40649  132 2567   39.00000   22.85656  41.4%  2348 1112s
   163   165   25.35406  136 2846   39.00000   22.85656  41.4%  2314 1118s
   165   167   25.23853  137 2681   39.00000   22.85656  41.4%  2310 1121s
   172   174   25.15798  143 3096   39.00000   22.85656  41.4%  2260 1125s
   183   185   25.63683  152 2738   39.00000   22.85656  41.4%  2190 1132s
   186   188   25.24816  154 3239   39.00000   22.85656  41.4%  2190 1135s
   188   190   25.25930  156 3048   39.00000   22.85656  41.4%  2170 1141s
   195   197   25.35025  163 2962   39.00000   22.85656  41.4%  2115 1145s
   201   203   25.65753  167 2376   39.00000   22.85656  41.4%  2102 1150s
   206   208   25.47722  171 2864   39.00000   22.85656  41.4%  2094 1155s
   214   216   25.74964  178 2391   39.00000   22.85656  41.4%  2078 1161s
   217   219   25.77419  180 2942   39.00000   22.85656  41.4%  2095 1172s
   222   224   25.69618  184 2286   39.00000   22.85656  41.4%  2078 1175s
   238   240   25.70502  199 2376   39.00000   22.85656  41.4%  1971 1180s
   249   251   25.78988  207 2298   39.00000   22.85656  41.4%  1913 1185s
   256   258   26.29793  212 1909   39.00000   22.85656  41.4%  1904 1190s
   266   268   25.99335  220 1610   39.00000   22.85656  41.4%  1877 1195s
   283   285   25.92773  237 1871   39.00000   22.85656  41.4%  1798 1200s
   297   299   25.99663  250 1623   39.00000   22.85656  41.4%  1758 1205s
   306   308   26.05484  257 1614   39.00000   22.85656  41.4%  1748 1210s
   317   319   26.37487  266 1607   39.00000   22.85656  41.4%  1737 1215s
   328   330   26.44357  276 1550   39.00000   22.85656  41.4%  1718 1220s
   339   341   26.44325  285 1379   39.00000   22.85656  41.4%  1697 1225s
   342   344   26.50435  287 1404   39.00000   22.85656  41.4%  1700 1234s
   344   346   26.52242  289 1286   39.00000   22.85656  41.4%  1697 1235s
   369   371   26.75113  311 1352   39.00000   22.85656  41.4%  1618 1240s
   378   380   26.67356  317 1240   39.00000   22.85656  41.4%  1602 1245s
   392   394   26.84088  328 1193   39.00000   22.85656  41.4%  1583 1250s
   430   432   27.11772  363  961   39.00000   22.85656  41.4%  1469 1255s
   463   465   27.44519  391 1034   39.00000   22.85656  41.4%  1396 1260s
   494   496   28.41078  415  956   39.00000   22.85656  41.4%  1346 1265s
   534   536   29.44108  451  803   39.00000   22.85656  41.4%  1269 1270s
   586   587   29.79374  498  721   39.00000   22.85656  41.4%  1171 1275s
   648   649   30.97999  553  569   39.00000   22.85656  41.4%  1074 1280s
   729   730   31.60365  626  580   39.00000   22.85656  41.4%   966 1285s
   797   798   32.17990  689  364   39.00000   22.85656  41.4%   894 1290s
   847   840   23.16102    4 4321   39.00000   22.85934  41.4%   860 1301s
   849   841   24.93678  118 4782   39.00000   22.85934  41.4%   858 1359s
   851   842   25.69823  185 3186   39.00000   22.85934  41.4%   856 1407s
   852   843   26.66117  311 3064   39.00000   22.85934  41.4%   855 1452s
   853   844   33.06525  714 3135   39.00000   22.85934  41.4%   854 1470s
   854   844   24.59684   97 3698   39.00000   22.85934  41.4%   853 1492s
   855   845   31.47255  601 3031   39.00000   22.85934  41.4%   852 1501s
   856   846   29.47229  448 3466   39.00000   22.89891  41.3%   851 1514s
   857   846   26.84946  336 3384   39.00000   23.00732  41.0%   850 1523s
   858   847   27.61560  368 3550   39.00000   23.13427  40.7%   849 1532s
   859   848   31.73087  640 3518   39.00000   23.25116  40.4%   848 1542s
   860   848   25.20351  105 3849   39.00000   23.27590  40.3%   847 1548s
   861   849   26.66117  311 3882   39.00000   23.28125  40.3%   846 1550s
   865   852   26.66117  311 3618   39.00000   23.28696  40.3%   843 1559s
   866   852   25.35414  137 3458   39.00000   23.76183  39.1%   842 1591s
   867   853   25.23867  138 3495   39.00000   23.76868  39.1%   841 1597s
   868   854   27.32899  384 4001   39.00000   23.79835  39.0%   840 1606s
   869   854   29.96858  529 3989   39.00000   23.82442  38.9%   839 1617s
   870   855   31.73087  637 4018   39.00000   23.82858  38.9%   838 1620s
   872   856   24.25991   71 4145   39.00000   23.83895  38.9%   836 1625s
   874   858   23.87561   38 4338   39.00000   23.84004  38.9%   834 1635s
   875   858   25.90119  224 3399   39.00000   24.14280  38.1%   833 1694s
   876   859   31.94590  660 3593   39.00000   24.17314  38.0%   832 1702s
   877   860   25.19011  148 3528   39.00000   24.20172  37.9%   831 1709s
   878   860   32.18657  691 3778   39.00000   24.22502  37.9%   830 1716s
   880   862   31.50014  580 3791   39.00000   24.23531  37.9%   828 1722s
   881   862   25.60394  189 3775   39.00000   24.23594  37.9%   827 1730s
   882   863   25.90734  227 3564   39.00000   24.44428  37.3%   826 1762s
   883   864   29.60281  461 4341   39.00000   24.51341  37.1%   825 1780s
   884   864   24.54021   86 4241   39.00000   24.54021  37.1%   824 1788s
   885   865   27.88245  398 4501   39.00000   24.55746  37.0%   824 1795s
   887   866   24.56878   64 4117   39.00000   24.56878  37.0%   822 1803s
   888   867   31.55388  553 4337   39.00000   24.57153  37.0%   821 1806s
   890   868   31.81017  649 4272   39.00000   24.57276  37.0%   819 1816s
   891   869   33.06525  704 3423   39.00000   24.81070  36.4%   818 1867s
   892   870   24.82737  101 3902   39.00000   24.82737  36.3%   817 1879s
   893   870   24.83937   19 3754   39.00000   24.83937  36.3%   816 1885s
   894   871   29.57132  458 3779   39.00000   24.84888  36.3%   815 1891s
   896   872   24.95485  120 3938   39.00000   24.86113  36.3%   813 1897s
   897   873   29.44676  430 4149   39.00000   24.86221  36.3%   813 1900s
   898   874   25.01159  126 4295   39.00000   24.87440  36.2%   812 1905s
   899   874   25.19252  149 4131   39.00000   24.88001  36.2%   811 1911s
   901   876   25.06516  131 4159   39.00000   24.88283  36.2%   809 1923s
   902   876   25.91120  231 3328   39.00000   25.05393  35.8%   808 2067s
   903   877   29.79374  499 3874   39.00000   25.06846  35.7%   807 2082s
   904   878   26.69516  318 3833   39.00000   25.07912  35.7%   806 2086s
   906   879   25.60619  169 4396   39.00000   25.08526  35.7%   804 2093s
   907   880   31.05598  567 4496   39.00000   25.08641  35.7%   804 2096s
   908   880   25.98702  248 4389   39.00000   25.08856  35.7%   803 2101s
   909   881   31.47255  599 4164   39.00000   25.08884  35.7%   802 2108s
   910   882   27.31390  380 3810   39.00000   25.41958  34.8%   801 2153s
   911   882   30.98375  556 4061   39.00000   25.42734  34.8%   800 2164s
   912   883   25.84513  217 4273   39.00000   25.43286  34.8%   799 2174s
   913   884   25.46369  171 4333   39.00000   25.43880  34.8%   798 2184s
   914   884   28.41078  415 4623   39.00000   25.44405  34.8%   797 2189s
   915   885   25.44512  105 4592   39.00000   25.44512  34.8%   797 2194s
   916   886   31.73087  637 4808   39.00000   25.44618  34.8%   796 2196s
   918   887   29.72944  490 4753   39.00000   25.44755  34.7%   794 2207s
   919   888   31.73087  637 3915   39.00000   25.47801  34.7%   793 2238s
   920   888   25.48395  147 4223   39.00000   25.48395  34.7%   792 2256s
   921   889   31.73087  636 4517   39.00000   25.49045  34.6%   791 2268s
   922   890   27.02832  352 4618   39.00000   25.49523  34.6%   790 2280s
   923   890   25.91531  232 4283   39.00000   25.49652  34.6%   790 2285s
   924   891   29.87958  514 4294   39.00000   25.49672  34.6%   789 2295s
   925   892   32.14253  680 3706   39.00000   25.54963  34.5%   788 2333s
   926   892   25.84513  217 4162   39.00000   25.55602  34.5%   787 2344s
   927   893   25.64009  153 4265   39.00000   25.56270  34.5%   786 2350s
   929   894   25.56807  113 4596   39.00000   25.56807  34.4%   785 2359s
   930   895   25.86407  223 4666   39.00000   25.56920  34.4%   784 2362s
   931   896   26.78151  321 4559   39.00000   25.56964  34.4%   783 2370s
   932   896   25.63047  143 3802   39.00000   25.63047  34.3%   782 2405s
   933   897   29.88501  513 3796   39.00000   25.63116  34.3%   781 2415s
   934   898   25.63798   65 3917   39.00000   25.63798  34.3%   780 2442s
   935   898   25.64694   10 4016   39.00000   25.64694  34.2%   779 2454s
   936   899   25.67266   74 4365   39.00000   25.67266  34.2%   779 2466s
   937   900   29.72944  490 4160   39.00000   25.67955  34.2%   778 2476s
   938   900   32.33708  675 4092   39.00000   25.68960  34.1%   777 2482s
   939   901   25.69060   61 4206   39.00000   25.69060  34.1%   776 2485s
   941   902   25.92688  236 4426   39.00000   25.69540  34.1%   775 2495s
   943   904   26.50819  288 4433   39.00000   25.69713  34.1%   773 2509s
   944   904   25.81670  181 3466   39.00000   25.81670  33.8%   772 2544s
   945   905   25.82243   97 3787   39.00000   25.82243  33.8%   771 2551s
   946   906   27.54631  396 3901   39.00000   25.82311  33.8%   770 2561s
   947   906   29.83456  485 3519   39.00000   25.83950  33.7%   770 2584s
   948   907   29.74586  482 4103   39.00000   25.84359  33.7%   769 2591s
   949   908   25.85077  118 3986   39.00000   25.85077  33.7%   768 2596s
   951   909   25.85196  185 3911   39.00000   25.85196  33.7%   766 2607s
   952   910   26.66117  311 3530   39.00000   25.87777  33.6%   766 2632s
   953   910   33.06525  714 4090   39.00000   25.88338  33.6%   765 2639s
   954   911   25.88924   97 3979   39.00000   25.88924  33.6%   764 2644s
   955   912   31.47255  601 3889   39.00000   25.89392  33.6%   763 2650s
   957   913   26.84946  336 4080   39.00000   25.89575  33.6%   762 2662s
   958   914   27.61560  368 3695   39.00000   25.94652  33.5%   761 2694s
   959   914   31.73087  640 3898   39.00000   25.94867  33.5%   760 2699s
   960   915   25.95063  105 4133   39.00000   25.95063  33.5%   759 2704s
   961   916   26.66117  311 4192   39.00000   25.95255  33.5%   758 2710s
   963   917   31.07029  543 4361   39.00000   25.95533  33.4%   757 2716s
   964   918   28.31434  403 4289   39.00000   25.95559  33.4%   756 2726s
   965   918   26.66117  311 3640   39.00000   26.00653  33.3%   755 2755s
   966   919   26.00995  137 4057   39.00000   26.00995  33.3%   754 2762s
   967   920   26.01207  138 4228   39.00000   26.01207  33.3%   754 2765s
   968   920   27.32899  384 4043   39.00000   26.01277  33.3%   753 2775s
   969   921   29.96858  529 3490   39.00000   26.06356  33.2%   752 2816s
   970   922   31.73087  637 3776   39.00000   26.06830  33.2%   751 2823s
   971   922   31.40989  608 3849   39.00000   26.07290  33.1%   751 2828s
   972   923   26.07372   71 3737   39.00000   26.07372  33.1%   750 2830s
   974   924   26.07676   38 3986   39.00000   26.07676  33.1%   748 2838s
   975   925   26.08006  224 4072   39.00000   26.08006  33.1%   748 2843s
   976   926   31.94590  660 4420   39.00000   26.08073  33.1%   747 2853s
   977   926   26.10323  148 4172   39.00000   26.10323  33.1%   746 2881s
   978   927   32.18657  691 4470   39.00000   26.10520  33.1%   745 2886s
   979   928   26.10964   53 4691   39.00000   26.10964  33.1%   744 2894s
   980   928   31.50014  580 4406   39.00000   26.11103  33.0%   744 2898s
   981   929   26.11260  189 4984   39.00000   26.11260  33.0%   743 2905s
   983   930   29.60281  461 4502   39.00000   26.11571  33.0%   741 2912s
   984   931   26.11606   86 4870   39.00000   26.11606  33.0%   741 2921s
   985   932   27.88245  398 4266   39.00000   26.12281  33.0%   740 2950s
   986   932   33.31501  709 4267   39.00000   26.12365  33.0%   739 2956s
   987   933   26.12383   64 4409   39.00000   26.12383  33.0%   738 2965s
   988   934   31.55388  553 4020   39.00000   26.12722  33.0%   738 2985s
   989   934   31.60308  595 4131   39.00000   26.12728  33.0%   737 2993s
   990   935   31.81017  649 3962   39.00000   26.13344  33.0%   736 3019s
   991   936   33.06525  704 4252   39.00000   26.13476  33.0%   735 3026s
   992   936   26.13676  101 4432   39.00000   26.13676  33.0%   735 3032s
   993   937   26.13723   19 4488   39.00000   26.13723  33.0%   734 3043s
   994   938   29.57132  458 4129   39.00000   26.14601  33.0%   733 3072s
   995   938   29.47229  448 4529   39.00000   26.14948  33.0%   732 3087s
   996   939   26.15013  120 4416   39.00000   26.15013  32.9%   732 3097s
   997   940   29.44676  430 3993   39.00000   26.15604  32.9%   731 3128s
   998   940   26.15681  126 4703   39.00000   26.15681  32.9%   730 3134s
   999   941   26.15874  149 4345   39.00000   26.15874  32.9%   730 3138s
  1000   942   30.04588  483 4806   39.00000   26.16145  32.9%   729 3148s
  1001   942   26.16221  131 4607   39.00000   26.16221  32.9%   728 3152s
  1002   943   26.16265  231 4541   39.00000   26.16265  32.9%   727 3162s
  1003   944   29.79374  499 4298   39.00000   26.16757  32.9%   727 3193s
  1004   944   26.69516  318 4668   39.00000   26.16792  32.9%   726 3204s
  1005   945   32.73087  625 4141   39.00000   26.17378  32.9%   725 3233s
  1006   946   26.17565  169 4547   39.00000   26.17565  32.9%   724 3240s
  1007   946   31.05598  567 4765   39.00000   26.17778  32.9%   724 3245s
  1008   947   26.17934  248 4906   39.00000   26.17934  32.9%   723 3251s
  1009   948   31.47255  599 4981   39.00000   26.17966  32.9%   722 3259s
  1010   948   27.31390  380 4388   39.00000   26.18314  32.9%   722 3283s
  1011   949   30.98375  556 4676   39.00000   26.18423  32.9%   721 3288s
  1012   950   26.18460  217 4936   39.00000   26.18460  32.9%   720 3298s
  1013   950   26.18714  171 4688   39.00000   26.18714  32.9%   719 3326s
  1014   951   28.41078  415 4908   39.00000   26.18798  32.9%   719 3332s
  1015   952   26.18893  105 4907   39.00000   26.18893  32.8%   718 3335s
  1016   952   31.73087  637 5043   39.00000   26.18904  32.8%   717 3344s
  1017   953   26.19206   19 4759   39.00000   26.19206  32.8%   717 3400s
  1018   954   29.72944  490 4862   39.00000   26.19206  32.8%   716 3409s
  1019   954   31.73087  637 4516   39.00000   26.19452  32.8%   715 3431s
  1020   955   26.19476  147 4777   39.00000   26.19476  32.8%   715 3441s
  1021   956   31.73087  636 4374   39.00000   26.19696  32.8%   714 3462s
  1024   959   29.87958  514 4782   39.00000   26.19696  32.8%  3295 3468s
  1026   960   26.19696  217 3256   39.00000   26.19696  32.8%  3289 3517s
  1027   961   26.19696  153 2705   39.00000   26.19696  32.8%  3286 3564s
  1028   962   31.26351  590 2852   39.00000   26.19696  32.8%  3283 3583s
  1029   962   26.19696  113 3080   39.00000   26.19696  32.8%  3279 3598s

Cutting planes:
  Learned: 3
  Cover: 555
  Implied bound: 37
  Projected implied bound: 3
  Clique: 48
  MIR: 161
  StrongCG: 2
  Flow cover: 518
  GUB cover: 389
  Zero half: 21
  RLT: 106
  Relax-and-lift: 106
  BQP: 26

Explored 1029 nodes (4279794 simplex iterations) in 3599.88 seconds (4915.75 work units)
Thread count was 1 (of 16 available processors)

Solution count 10: 39 40 40 ... 47

Time limit reached
Best objective 3.900000000000e+01, best bound 2.700000000000e+01, gap 30.7692%

User-callback calls 357837, time in user-callback 0.61 sec
Stat(MathOptInterface.TIME_LIMIT, 39.0, 27.0, 0.3076923076923077, 6.89887087322523e-310, 0.120752, 3599.8852438926697, 1029, Main.CFLG.EVFP, "", #undef)
